NAME          BLANK   
ROWS
 N  OBJROW
 L  R0000000
COLUMNS
    C0000000  OBJROW     -550.         R0000000  66.         
    C0000001  OBJROW     -211.         R0000000  953.        
    C0000002  OBJROW     -415.         R0000000  200.        
    C0000003  OBJROW     -235.         R0000000  75.         
    C0000004  OBJROW     -543.         R0000000  230.        
    C0000005  OBJROW     -796.         R0000000  957.        
    C0000006  OBJROW     -895.         R0000000  942.        
    C0000007  OBJROW     -466.         R0000000  101.        
    C0000008  OBJROW     -432.         R0000000  406.        
    C0000009  OBJROW     -842.         R0000000  821.        
    C0000010  OBJROW     -705.         R0000000  38.         
    C0000011  OBJROW     -682.         R0000000  851.        
    C0000012  OBJROW     -183.         R0000000  984.        
    C0000013  OBJROW     -316.         R0000000  3.          
    C0000014  OBJROW     -375.         R0000000  536.        
    C0000015  OBJROW     -4.           R0000000  51.         
    C0000016  OBJROW     -439.         R0000000  830.        
    C0000017  OBJROW     -388.         R0000000  428.        
    C0000018  OBJROW     -159.         R0000000  351.        
    C0000019  OBJROW     -66.          R0000000  866.        
    C0000020  OBJROW     -121.         R0000000  768.        
    C0000021  OBJROW     -824.         R0000000  107.        
    C0000022  OBJROW     -18.          R0000000  864.        
    C0000023  OBJROW     -560.         R0000000  755.        
    C0000024  OBJROW     -426.         R0000000  726.        
    C0000025  OBJROW     -416.         R0000000  325.        
    C0000026  OBJROW     -211.         R0000000  876.        
    C0000027  OBJROW     -62.          R0000000  198.        
    C0000028  OBJROW     -317.         R0000000  485.        
    C0000029  OBJROW     -164.         R0000000  836.        
    C0000030  OBJROW     -791.         R0000000  119.        
    C0000031  OBJROW     -162.         R0000000  60.         
    C0000032  OBJROW     -865.         R0000000  357.        
    C0000033  OBJROW     -810.         R0000000  469.        
    C0000034  OBJROW     -889.         R0000000  238.        
    C0000035  OBJROW     -976.         R0000000  173.        
    C0000036  OBJROW     -594.         R0000000  958.        
    C0000037  OBJROW     -952.         R0000000  901.        
    C0000038  OBJROW     -562.         R0000000  126.        
    C0000039  OBJROW     -417.         R0000000  507.        
    C0000040  OBJROW     -2.           R0000000  656.        
    C0000041  OBJROW     -817.         R0000000  217.        
    C0000042  OBJROW     -554.         R0000000  994.        
    C0000043  OBJROW     -9.           R0000000  457.        
    C0000044  OBJROW     -128.         R0000000  162.        
    C0000045  OBJROW     -619.         R0000000  727.        
    C0000046  OBJROW     -934.         R0000000  27.         
    C0000047  OBJROW     -805.         R0000000  879.        
    C0000048  OBJROW     -100.         R0000000  843.        
    C0000049  OBJROW     -334.         R0000000  688.        
RHS
    RHS       R0000000  12593.      
BOUNDS
 BV BOUND     C0000000  1.          
 BV BOUND     C0000001  1.          
 BV BOUND     C0000002  1.          
 BV BOUND     C0000003  1.          
 BV BOUND     C0000004  1.          
 BV BOUND     C0000005  1.          
 BV BOUND     C0000006  1.          
 BV BOUND     C0000007  1.          
 BV BOUND     C0000008  1.          
 BV BOUND     C0000009  1.          
 BV BOUND     C0000010  1.          
 BV BOUND     C0000011  1.          
 BV BOUND     C0000012  1.          
 BV BOUND     C0000013  1.          
 BV BOUND     C0000014  1.          
 BV BOUND     C0000015  1.          
 BV BOUND     C0000016  1.          
 BV BOUND     C0000017  1.          
 BV BOUND     C0000018  1.          
 BV BOUND     C0000019  1.          
 BV BOUND     C0000020  1.          
 BV BOUND     C0000021  1.          
 BV BOUND     C0000022  1.          
 BV BOUND     C0000023  1.          
 BV BOUND     C0000024  1.          
 BV BOUND     C0000025  1.          
 BV BOUND     C0000026  1.          
 BV BOUND     C0000027  1.          
 BV BOUND     C0000028  1.          
 BV BOUND     C0000029  1.          
 BV BOUND     C0000030  1.          
 BV BOUND     C0000031  1.          
 BV BOUND     C0000032  1.          
 BV BOUND     C0000033  1.          
 BV BOUND     C0000034  1.          
 BV BOUND     C0000035  1.          
 BV BOUND     C0000036  1.          
 BV BOUND     C0000037  1.          
 BV BOUND     C0000038  1.          
 BV BOUND     C0000039  1.          
 BV BOUND     C0000040  1.          
 BV BOUND     C0000041  1.          
 BV BOUND     C0000042  1.          
 BV BOUND     C0000043  1.          
 BV BOUND     C0000044  1.          
 BV BOUND     C0000045  1.          
 BV BOUND     C0000046  1.          
 BV BOUND     C0000047  1.          
 BV BOUND     C0000048  1.          
 BV BOUND     C0000049  1.          
ENDATA
